37 37
27
3 3 31 14
3 4 34 33
3 5 23 0
3 6 34 0
3 7 20 0
3 8 31 29
3 9 34 6
3 11 23 26
3 12 31 17
3 13 20 7
3 14 26 0
3 17 20 20
3 18 34 15
3 21 23 5
4 3 16 0
4 4 16 3
4 5 0 10
4 6 16 31
4 10 0 0
4 22 0 15
4 24 16 7
5 3 26 28
5 4 26 24
5 6 26 31
5 10 26 14
5 14 29 0
12 37 4 0
